TYPE : Vertex Cover
DIMENSION: 31
EDGE_DATA_SECTION:
0 14
0 24
1 11
1 22
1 26
2 4
2 21
3 12
3 15
3 26
4 5
4 17
4 27
4 29
5 12
5 25
6 7
6 24
6 30
7 10
7 13
7 17
7 20
7 22
7 24
7 25
7 28
8 13
8 14
8 15
8 18
9 12
9 16
9 18
9 25
9 30
11 16
11 25
11 28
12 17
13 22
14 17
14 18
14 19
14 25
14 26
14 28
15 22
17 20
17 26
17 30
18 21
20 21
21 22
22 29
23 28
24 27
24 30
28 30
-1
VERTEX_DEGREE:
2.0 3.0 2.0 3.0 5.0 3.0 3.0 9.0 4.0 5.0 1.0 4.0 4.0 3.0 8.0 3.0 2.0 7.0 4.0 1.0 3.0 4.0 6.0 1.0 5.0 5.0 4.0 2.0 5.0 2.0 5.0
VERTEX_COVER:
1 3 4 5 7 8 9 11 14 17 21 22 24 28 30
EOF
